p cnf 20	278
1	2	3	0
-1	-2	-3	0
1	2	10	0
-1	-2	-10	0
1	2	16	0
-1	-2	-16	0
1	2	17	0
-1	-2	-17	0
1	3	5	0
-1	-3	-5	0
1	3	9	0
-1	-3	-9	0
1	3	10	0
-1	-3	-10	0
1	3	16	0
-1	-3	-16	0
1	3	17	0
-1	-3	-17	0
1	5	6	0
-1	-5	-6	0
1	5	13	0
-1	-5	-13	0
1	5	16	0
-1	-5	-16	0
1	5	17	0
-1	-5	-17	0
1	6	10	0
-1	-6	-10	0
1	6	11	0
-1	-6	-11	0
1	6	12	0
-1	-6	-12	0
1	9	10	0
-1	-9	-10	0
1	9	11	0
-1	-9	-11	0
1	9	13	0
-1	-9	-13	0
1	9	16	0
-1	-9	-16	0
1	10	11	0
-1	-10	-11	0
1	10	12	0
-1	-10	-12	0
1	10	16	0
-1	-10	-16	0
1	11	12	0
-1	-11	-12	0
1	11	13	0
-1	-11	-13	0
1	11	16	0
-1	-11	-16	0
1	12	13	0
-1	-12	-13	0
1	12	16	0
-1	-12	-16	0
1	12	17	0
-1	-12	-17	0
1	13	17	0
-1	-13	-17	0
1	16	17	0
-1	-16	-17	0
2	3	10	0
-2	-3	-10	0
2	3	16	0
-2	-3	-16	0
2	3	17	0
-2	-3	-17	0
2	3	18	0
-2	-3	-18	0
2	7	8	0
-2	-7	-8	0
2	7	10	0
-2	-7	-10	0
2	7	16	0
-2	-7	-16	0
2	7	17	0
-2	-7	-17	0
2	10	16	0
-2	-10	-16	0
2	10	18	0
-2	-10	-18	0
2	16	17	0
-2	-16	-17	0
2	17	18	0
-2	-17	-18	0
3	5	16	0
-3	-5	-16	0
3	5	17	0
-3	-5	-17	0
3	9	10	0
-3	-9	-10	0
3	9	16	0
-3	-9	-16	0
3	9	18	0
-3	-9	-18	0
3	9	19	0
-3	-9	-19	0
3	10	16	0
-3	-10	-16	0
3	10	18	0
-3	-10	-18	0
3	16	17	0
-3	-16	-17	0
3	16	19	0
-3	-16	-19	0
3	17	18	0
-3	-17	-18	0
3	18	19	0
-3	-18	-19	0
4	8	15	0
-4	-8	-15	0
4	10	11	0
-4	-10	-11	0
4	10	14	0
-4	-10	-14	0
4	10	15	0
-4	-10	-15	0
4	10	18	0
-4	-10	-18	0
4	11	13	0
-4	-11	-13	0
4	11	14	0
-4	-11	-14	0
4	14	18	0
-4	-14	-18	0
4	15	18	0
-4	-15	-18	0
5	6	15	0
-5	-6	-15	0
5	13	17	0
-5	-13	-17	0
5	14	16	0
-5	-14	-16	0
5	14	17	0
-5	-14	-17	0
5	15	16	0
-5	-15	-16	0
5	15	17	0
-5	-15	-17	0
5	16	17	0
-5	-16	-17	0
6	7	10	0
-6	-7	-10	0
6	10	11	0
-6	-10	-11	0
6	10	12	0
-6	-10	-12	0
6	10	15	0
-6	-10	-15	0
6	11	12	0
-6	-11	-12	0
6	12	15	0
-6	-12	-15	0
7	8	9	0
-7	-8	-9	0
7	9	10	0
-7	-9	-10	0
7	9	13	0
-7	-9	-13	0
7	9	14	0
-7	-9	-14	0
7	9	16	0
-7	-9	-16	0
7	9	19	0
-7	-9	-19	0
7	10	14	0
-7	-10	-14	0
7	10	16	0
-7	-10	-16	0
7	13	17	0
-7	-13	-17	0
7	13	19	0
-7	-13	-19	0
7	14	16	0
-7	-14	-16	0
7	14	17	0
-7	-14	-17	0
7	16	17	0
-7	-16	-17	0
7	16	19	0
-7	-16	-19	0
8	12	15	0
-8	-12	-15	0
9	10	11	0
-9	-10	-11	0
9	10	14	0
-9	-10	-14	0
9	10	16	0
-9	-10	-16	0
9	10	18	0
-9	-10	-18	0
9	11	13	0
-9	-11	-13	0
9	11	14	0
-9	-11	-14	0
9	11	16	0
-9	-11	-16	0
9	11	19	0
-9	-11	-19	0
9	13	19	0
-9	-13	-19	0
9	14	16	0
-9	-14	-16	0
9	14	18	0
-9	-14	-18	0
9	16	19	0
-9	-16	-19	0
9	18	19	0
-9	-18	-19	0
10	11	12	0
-10	-11	-12	0
10	11	14	0
-10	-11	-14	0
10	11	16	0
-10	-11	-16	0
10	12	14	0
-10	-12	-14	0
10	12	15	0
-10	-12	-15	0
10	12	16	0
-10	-12	-16	0
10	12	18	0
-10	-12	-18	0
10	14	16	0
-10	-14	-16	0
10	14	18	0
-10	-14	-18	0
10	15	16	0
-10	-15	-16	0
10	15	18	0
-10	-15	-18	0
11	12	13	0
-11	-12	-13	0
11	12	14	0
-11	-12	-14	0
11	12	16	0
-11	-12	-16	0
11	12	19	0
-11	-12	-19	0
11	13	19	0
-11	-13	-19	0
11	14	16	0
-11	-14	-16	0
11	16	19	0
-11	-16	-19	0
12	13	17	0
-12	-13	-17	0
12	13	19	0
-12	-13	-19	0
12	14	16	0
-12	-14	-16	0
12	14	17	0
-12	-14	-17	0
12	14	18	0
-12	-14	-18	0
12	15	16	0
-12	-15	-16	0
12	15	17	0
-12	-15	-17	0
12	15	18	0
-12	-15	-18	0
12	16	17	0
-12	-16	-17	0
12	16	19	0
-12	-16	-19	0
12	17	18	0
-12	-17	-18	0
12	18	19	0
-12	-18	-19	0
14	16	17	0
-14	-16	-17	0
14	17	18	0
-14	-17	-18	0
15	16	17	0
-15	-16	-17	0
15	17	18	0
-15	-17	-18	0